MARKOV
224
 2 2 2 2 2 2 2 2 2 2 2 2 2 2 2 2 2 2 2 2 2 2 2 2 2 2 2 2 2 2 2 2 2 2 2 2 2 2 2 2 2 2 2 2 2 2 2 2 2 2 2 2 2 2 2 2 2 2 2 2 2 2 2 2 2 2 2 2 2 2 2 2 2 2 2 2 2 2 2 2 2 2 2 2 2 2 2 2 2 2 2 2 2 2 2 2 2 2 2 2 2 2 2 2 2 2 2 2 2 2 2 2 2 2 2 2 2 2 2 2 2 2 2 2 2 2 2 2 2 2 2 2 2 2 2 2 2 2 2 2 2 2 2 2 2 2 2 2 2 2 2 2 2 2 2 2 2 2 2 2 2 2 2 2 2 2 2 2 2 2 2 2 2 2 2 2 2 2 2 2 2 2 2 2 2 2 2 2 2 2 2 2 2 2 2 2 2 2 2 2 2 2 2 2 2 2 2 2 2 2 2 2 2 2 2 2 2 2 2 2 2 2 2 2
833
1	0 
1	1 
1	2 
1	3 
1	4 
1	5 
1	6 
1	7 
1	8 
1	9 
1	10 
1	11 
1	12 
1	13 
1	14 
1	15 
1	16 
1	17 
1	18 
1	19 
1	20 
1	21 
1	22 
1	23 
1	24 
1	25 
1	26 
1	27 
1	28 
1	29 
1	30 
1	31 
1	32 
1	33 
1	34 
1	35 
1	36 
1	37 
1	38 
1	39 
1	40 
1	41 
1	42 
1	43 
1	44 
1	45 
1	46 
1	47 
1	48 
1	49 
1	50 
1	51 
1	52 
1	53 
1	54 
1	55 
1	56 
1	57 
1	58 
1	59 
1	60 
1	61 
1	62 
1	63 
1	64 
1	65 
1	66 
1	67 
1	68 
1	69 
1	70 
1	71 
1	72 
1	73 
1	74 
1	75 
1	76 
1	77 
1	78 
1	79 
1	80 
1	81 
1	82 
1	83 
1	84 
1	85 
1	86 
1	87 
1	88 
1	89 
1	90 
1	91 
1	92 
1	93 
1	94 
1	95 
1	96 
1	97 
1	98 
1	99 
1	100 
1	101 
1	102 
1	103 
1	104 
1	105 
1	106 
1	107 
1	108 
1	109 
1	110 
1	111 
1	112 
1	113 
1	114 
1	115 
1	116 
1	117 
1	118 
1	119 
1	120 
1	121 
1	122 
1	123 
1	124 
1	125 
1	126 
1	127 
1	128 
1	129 
1	130 
1	131 
1	132 
1	133 
1	134 
1	135 
1	136 
1	137 
1	138 
1	139 
1	140 
1	141 
1	142 
1	143 
1	144 
1	145 
1	146 
1	147 
1	148 
1	149 
1	150 
1	151 
1	152 
1	153 
1	154 
1	155 
1	156 
1	157 
1	158 
1	159 
1	160 
1	161 
1	162 
1	163 
1	164 
1	165 
1	166 
1	167 
1	168 
1	169 
1	170 
1	171 
1	172 
1	173 
1	174 
1	175 
1	176 
1	177 
1	178 
1	179 
1	180 
1	181 
1	182 
1	183 
1	184 
1	185 
1	186 
1	187 
1	188 
1	189 
1	190 
1	191 
1	192 
1	193 
1	194 
1	195 
1	196 
1	197 
1	198 
1	199 
1	200 
1	201 
1	202 
1	203 
1	204 
1	205 
1	206 
1	207 
1	208 
1	209 
1	210 
1	211 
1	212 
1	213 
1	214 
1	215 
1	216 
1	217 
1	218 
1	219 
1	220 
1	221 
1	222 
1	223 
2	1 2 
2	1 3 
2	1 75 
2	1 196 
2	1 204 
2	1 205 
2	2 3 
2	2 195 
2	2 196 
2	3 205 
2	3 206 
2	4 5 
2	4 6 
2	4 66 
2	4 69 
2	5 6 
2	5 7 
2	5 8 
2	6 7 
2	6 66 
2	6 70 
2	6 128 
2	7 8 
2	7 9 
2	7 10 
2	7 128 
2	7 131 
2	8 10 
2	9 10 
2	9 116 
2	9 118 
2	9 131 
2	9 160 
2	10 116 
2	11 12 
2	11 15 
2	11 55 
2	11 57 
2	11 123 
2	11 153 
2	11 155 
2	12 14 
2	12 15 
2	12 57 
2	12 136 
2	12 180 
2	13 14 
2	13 15 
2	13 81 
2	13 91 
2	13 137 
2	13 150 
2	13 152 
2	14 15 
2	14 136 
2	14 137 
2	15 152 
2	15 155 
2	16 17 
2	16 18 
2	16 19 
2	16 21 
2	16 215 
2	16 216 
2	17 19 
2	17 94 
2	17 189 
2	17 216 
2	18 19 
2	18 20 
2	18 21 
2	19 189 
2	19 192 
2	20 21 
2	20 22 
2	20 113 
2	21 22 
2	21 214 
2	21 215 
2	22 113 
2	22 114 
2	22 214 
2	23 24 
2	23 25 
2	23 103 
2	23 105 
2	24 25 
2	24 26 
2	24 28 
2	24 78 
2	24 80 
2	24 103 
2	25 28 
2	26 27 
2	26 28 
2	26 29 
2	26 80 
2	27 28 
2	27 29 
2	27 140 
2	29 80 
2	29 140 
2	29 207 
2	29 209 
2	30 33 
2	30 34 
2	30 137 
2	30 138 
2	30 151 
2	30 179 
2	31 32 
2	31 33 
2	31 34 
2	31 35 
2	31 53 
2	31 141 
2	32 34 
2	32 35 
2	32 149 
2	32 151 
2	32 207 
2	33 34 
2	33 51 
2	33 52 
2	33 53 
2	33 179 
2	34 151 
2	35 139 
2	35 140 
2	35 141 
2	35 207 
2	36 37 
2	36 38 
2	36 39 
2	36 166 
2	36 168 
2	37 39 
2	37 110 
2	37 168 
2	37 186 
2	38 39 
2	38 109 
2	39 108 
2	39 109 
2	39 110 
2	40 41 
2	40 42 
2	40 43 
2	40 45 
2	40 46 
2	40 49 
2	41 43 
2	41 44 
2	41 47 
2	41 49 
2	41 65 
2	42 43 
2	42 45 
2	42 84 
2	42 144 
2	43 44 
2	43 143 
2	43 144 
2	44 65 
2	44 142 
2	44 143 
2	44 174 
2	44 200 
2	44 201 
2	45 46 
2	45 84 
2	45 85 
2	45 101 
2	46 49 
2	46 95 
2	46 101 
2	46 125 
2	46 218 
2	47 48 
2	47 49 
2	47 65 
2	47 125 
2	47 127 
2	48 65 
2	48 127 
2	48 169 
2	48 170 
2	49 125 
2	50 51 
2	50 52 
2	50 54 
2	50 111 
2	51 52 
2	51 54 
2	51 179 
2	51 182 
2	52 53 
2	53 141 
2	54 111 
2	54 182 
2	54 185 
2	55 56 
2	55 57 
2	55 58 
2	55 122 
2	55 123 
2	56 58 
2	56 59 
2	56 120 
2	56 122 
2	56 166 
2	56 167 
2	57 58 
2	57 180 
2	57 183 
2	58 167 
2	58 183 
2	59 120 
2	59 166 
2	60 63 
2	60 64 
2	60 172 
2	60 173 
2	60 193 
2	60 194 
2	61 62 
2	61 63 
2	61 64 
2	61 92 
2	61 164 
2	62 63 
2	62 81 
2	62 92 
2	62 148 
2	62 150 
2	63 64 
2	63 148 
2	63 193 
2	64 164 
2	64 165 
2	64 171 
2	64 173 
2	65 169 
2	65 174 
2	66 67 
2	66 68 
2	66 69 
2	66 70 
2	66 73 
2	67 68 
2	67 73 
2	67 75 
2	67 196 
2	67 199 
2	68 69 
2	68 199 
2	70 72 
2	70 73 
2	70 128 
2	70 130 
2	71 74 
2	71 76 
2	71 154 
2	71 156 
2	71 202 
2	71 204 
2	72 73 
2	72 74 
2	72 129 
2	72 130 
2	73 74 
2	73 75 
2	73 76 
2	74 76 
2	74 129 
2	74 156 
2	75 76 
2	75 196 
2	75 204 
2	76 204 
2	77 78 
2	77 103 
2	77 106 
2	77 146 
2	77 147 
2	77 222 
2	78 79 
2	78 80 
2	78 103 
2	78 146 
2	79 80 
2	79 142 
2	79 146 
2	79 201 
2	79 208 
2	80 208 
2	80 209 
2	81 91 
2	81 150 
2	82 83 
2	82 84 
2	82 85 
2	82 87 
2	83 85 
2	83 100 
2	83 102 
2	84 85 
2	84 87 
2	84 90 
2	84 144 
2	85 101 
2	85 102 
2	86 87 
2	86 88 
2	86 223 
2	87 88 
2	87 90 
2	88 89 
2	88 90 
2	88 221 
2	88 223 
2	89 90 
2	89 145 
2	89 220 
2	89 221 
2	90 144 
2	90 145 
2	91 92 
2	91 134 
2	91 152 
2	92 132 
2	92 133 
2	92 134 
2	92 164 
2	93 96 
2	93 97 
2	93 98 
2	93 99 
2	94 95 
2	94 97 
2	94 98 
2	94 189 
2	94 216 
2	94 218 
2	95 98 
2	95 101 
2	95 218 
2	96 97 
2	96 190 
2	96 191 
2	97 98 
2	97 189 
2	97 190 
2	98 99 
2	98 101 
2	98 102 
2	99 100 
2	99 102 
2	100 102 
2	101 102 
2	103 105 
2	103 106 
2	104 106 
2	104 107 
2	104 177 
2	104 178 
2	104 220 
2	104 222 
2	105 106 
2	105 107 
2	106 107 
2	106 222 
2	107 177 
2	108 109 
2	108 110 
2	108 111 
2	110 111 
2	110 185 
2	110 186 
2	111 185 
2	112 113 
2	112 114 
2	112 115 
2	112 117 
2	113 114 
2	113 117 
2	114 115 
2	114 213 
2	114 214 
2	115 117 
2	115 118 
2	115 159 
2	115 160 
2	115 213 
2	116 117 
2	116 118 
2	117 118 
2	118 160 
2	119 122 
2	119 123 
2	119 124 
2	119 154 
2	119 202 
2	120 121 
2	120 122 
2	121 122 
2	121 124 
2	121 203 
2	122 123 
2	122 124 
2	123 153 
2	123 154 
2	124 202 
2	124 203 
2	125 126 
2	125 127 
2	125 217 
2	125 218 
2	126 127 
2	126 212 
2	126 217 
2	126 219 
2	127 170 
2	127 211 
2	127 212 
2	128 130 
2	128 131 
2	128 132 
2	129 130 
2	129 135 
2	129 156 
2	129 157 
2	130 132 
2	130 133 
2	130 135 
2	131 132 
2	131 160 
2	131 163 
2	132 133 
2	132 163 
2	132 164 
2	133 134 
2	133 135 
2	134 135 
2	134 152 
2	134 157 
2	135 157 
2	136 137 
2	136 138 
2	136 180 
2	136 181 
2	137 138 
2	137 150 
2	137 151 
2	138 179 
2	138 181 
2	139 140 
2	139 141 
2	140 207 
2	142 143 
2	142 146 
2	142 201 
2	143 144 
2	143 146 
2	143 147 
2	144 145 
2	144 147 
2	145 147 
2	145 220 
2	145 222 
2	146 147 
2	147 222 
2	148 149 
2	148 150 
2	148 151 
2	148 193 
2	149 151 
2	149 193 
2	149 207 
2	149 210 
2	150 151 
2	152 155 
2	152 157 
2	153 154 
2	153 155 
2	153 156 
2	154 156 
2	154 202 
2	155 156 
2	155 157 
2	156 157 
2	158 159 
2	158 160 
2	158 161 
2	158 162 
2	158 163 
2	159 160 
2	159 161 
2	159 211 
2	159 213 
2	160 163 
2	161 162 
2	161 165 
2	161 170 
2	161 171 
2	161 211 
2	162 163 
2	162 164 
2	162 165 
2	163 164 
2	164 165 
2	165 171 
2	166 167 
2	166 168 
2	167 168 
2	167 183 
2	167 186 
2	168 186 
2	169 170 
2	169 171 
2	169 173 
2	169 174 
2	170 171 
2	170 211 
2	171 173 
2	172 173 
2	172 174 
2	172 194 
2	172 200 
2	173 174 
2	174 200 
2	175 176 
2	175 178 
2	175 221 
2	175 223 
2	176 177 
2	176 178 
2	177 178 
2	178 220 
2	178 221 
2	179 181 
2	179 182 
2	180 181 
2	180 182 
2	180 183 
2	180 184 
2	181 182 
2	182 184 
2	182 185 
2	183 184 
2	183 186 
2	184 185 
2	184 186 
2	185 186 
2	187 188 
2	187 189 
2	187 190 
2	187 191 
2	187 192 
2	188 191 
2	189 190 
2	189 192 
2	190 191 
2	193 194 
2	193 210 
2	194 200 
2	194 201 
2	194 208 
2	194 209 
2	194 210 
2	195 196 
2	195 197 
2	195 198 
2	196 197 
2	196 199 
2	197 198 
2	197 199 
2	200 201 
2	201 208 
2	202 203 
2	202 204 
2	202 205 
2	203 205 
2	203 206 
2	204 205 
2	205 206 
2	207 209 
2	207 210 
2	208 209 
2	209 210 
2	211 212 
2	211 213 
2	212 213 
2	212 214 
2	212 219 
2	213 214 
2	214 215 
2	214 219 
2	215 216 
2	215 217 
2	215 219 
2	216 217 
2	216 218 
2	217 218 
2	217 219 
2	220 221 
2	220 222 
2	221 223 
0	

2
 0.252912 1
2
 1 0.109623
2
 1 0.03973
2
 1 0.0961762
2
 1 0.0542534
2
 1 0.140504
2
 1 0.10445
2
 1 0.336919
2
 1 0.0729116
2
 1 0.227286
2
 1 0.0900338
2
 1 0.151678
2
 1 0.415967
2
 0.599181 1
2
 1 0.496697
2
 1 0.172399
2
 1 0.141294
2
 1 0.116643
2
 1 0.148504
2
 1 0.119017
2
 1 0.0905581
2
 1 0.111926
2
 1 0.0874149
2
 0.78695 1
2
 1 0.886247
2
 1 0.621881
2
 0.611061 1
2
 1 0.589425
2
 1 0.605243
2
 0.505974 1
2
 0.321608 1
2
 0.915128 1
2
 0.554236 1
2
 0.439938 1
2
 0.282967 1
2
 0.96812 1
2
 1 0.686218
2
 0.848916 1
2
 1 0.465182
2
 1 0.571516
2
 1 0.266926
2
 1 0.398941
2
 1 0.140602
2
 1 0.383396
2
 0.426786 1
2
 1 0.215544
2
 1 0.350562
2
 1 0.891642
2
 0.82287 1
2
 1 0.203076
2
 1 0.451115
2
 0.918849 1
2
 1 0.505814
2
 1 0.415433
2
 1 0.795635
2
 1 0.392128
2
 1 0.396597
2
 1 0.499116
2
 1 0.858165
2
 1 0.181396
2
 0.144685 1
2
 0.979197 1
2
 0.351246 1
2
 0.297197 1
2
 1 0.398682
2
 1 0.968074
2
 1 0.164316
2
 1 0.122676
2
 1 0.0676913
2
 1 0.072995
2
 1 0.182381
2
 0.590046 1
2
 1 0.520353
2
 1 0.0947808
2
 0.764035 1
2
 1 0.100917
2
 1 0.167194
2
 0.50127 1
2
 0.238599 1
2
 0.131201 1
2
 0.315547 1
2
 0.18229 1
2
 1 0.0747533
2
 1 0.278833
2
 1 0.15312
2
 1 0.120034
2
 1 0.175009
2
 1 0.0494948
2
 1 0.170163
2
 1 0.315834
2
 1 0.108692
2
 0.22243 1
2
 0.367201 1
2
 1 0.316049
2
 1 0.224781
2
 1 0.242785
2
 1 0.0692614
2
 1 0.0731829
2
 1 0.219404
2
 1 0.14951
2
 1 0.0883622
2
 1 0.191974
2
 1 0.200706
2
 1 0.638554
2
 1 0.805408
2
 1 0.433833
2
 0.940727 1
2
 1 0.591124
2
 1 0.397706
2
 1 0.296318
2
 1 0.418362
2
 1 0.62063
2
 1 0.0756264
2
 1 0.087019
2
 1 0.24617
2
 1 0.291615
2
 1 0.0699192
2
 1 0.086405
2
 1 0.162821
2
 1 0.120148
2
 1 0.029691
2
 1 0.0905839
2
 1 0.0774454
2
 1 0.156656
2
 1 0.0768397
2
 1 0.243875
2
 1 0.418051
2
 1 0.816166
2
 1 0.16462
2
 1 0.373883
2
 1 0.254613
2
 1 0.119402
2
 0.294975 1
2
 0.417155 1
2
 1 0.867722
2
 1 0.212992
2
 0.154821 1
2
 0.215417 1
2
 0.239819 1
2
 1 0.64515
2
 1 0.699848
2
 1 0.954407
2
 0.325448 1
2
 1 0.470709
2
 1 0.20422
2
 1 0.547027
2
 0.210614 1
2
 0.808217 1
2
 0.269177 1
2
 0.315747 1
2
 0.128616 1
2
 0.259669 1
2
 1 0.953809
2
 1 0.214994
2
 1 0.413375
2
 1 0.241352
2
 0.751328 1
2
 1 0.15962
2
 1 0.441332
2
 1 0.322469
2
 1 0.221444
2
 1 0.638678
2
 1 0.693087
2
 1 0.876328
2
 0.757263 1
2
 1 0.359922
2
 0.517149 1
2
 0.235831 1
2
 0.574811 1
2
 0.66799 1
2
 0.31422 1
2
 1 0.273328
2
 0.509544 1
2
 1 0.3231
2
 0.803774 1
2
 0.529298 1
2
 1 0.389165
2
 1 0.679725
2
 0.976643 1
2
 0.416198 1
2
 0.106446 1
2
 0.253101 1
2
 0.380625 1
2
 0.118234 1
2
 0.719585 1
2
 1 0.887633
2
 0.92678 1
2
 1 0.0749917
2
 1 0.0994854
2
 1 0.0995769
2
 1 0.0541251
2
 1 0.104078
2
 1 0.160251
2
 0.0918917 1
2
 0.140141 1
2
 1 0.052413
2
 1 0.0931829
2
 1 0.0693711
2
 1 0.0656984
2
 1 0.0768207
2
 0.276464 1
2
 0.283076 1
2
 1 0.154635
2
 1 0.0842515
2
 1 0.136263
2
 1 0.122131
2
 1 0.10027
2
 0.301085 1
2
 0.168748 1
2
 0.116118 1
2
 0.156025 1
2
 0.435141 1
2
 1 0.756467
2
 1 0.216642
2
 1 0.124822
2
 1 0.276206
2
 1 0.271155
2
 1 0.398166
2
 1 0.154072
2
 1 0.454641
2
 0.675969 1
2
 0.289688 1
2
 0.422129 1
2
 0.373258 1
4
 1 0.279057 0.279057 0.989175
4
 1 0.277381 0.277381 0.993629
4
 1 0.283221 0.283221 0.987844
4
 1 0.282978 0.282978 0.984797
4
 1 0.280372 0.280372 0.992849
4
 1 0.277611 0.277611 0.996479
4
 1 0.275971 0.275971 0.992959
4
 1 0.279447 0.279447 0.984465
4
 1 0.281538 0.281538 0.984134
4
 0.99971 0.274461 0.274461 1
4
 0.997972 0.271891 0.271891 1
4
 1 0.305847 0.305847 0.963469
4
 1 0.30338 0.30338 0.967861
4
 1 0.299805 0.299805 0.969438
4
 1 0.301729 0.301729 0.964822
4
 1 0.305975 0.305975 0.966287
4
 1 0.308749 0.308749 0.965311
4
 1 0.310604 0.310604 0.960769
4
 1 0.306259 0.306259 0.969711
4
 1 0.29993 0.29993 0.972273
4
 1 0.300047 0.300047 0.974897
4
 1 0.302901 0.302901 0.974077
4
 1 0.310892 0.310892 0.964174
4
 1 0.310966 0.310966 0.968569
4
 1 0.312824 0.312824 0.963795
4
 1 0.305647 0.305647 0.973093
4
 1 0.307209 0.307209 0.97375
4
 1 0.314704 0.314704 0.95926
4
 1 0.314779 0.314779 0.963633
4
 1 0.317212 0.317212 0.962174
4
 1 0.315953 0.315953 0.966235
4
 1 0.309128 0.309128 0.973586
4
 1 0.312529 0.312529 0.971457
4
 1 0.319108 0.319108 0.957431
4
 0.970557 0.265483 0.265483 1
4
 0.974763 0.269259 0.269259 1
4
 0.96985 0.26213 0.26213 1
4
 0.968815 0.262874 0.262874 1
4
 0.974654 0.265445 0.265445 1
4
 0.978382 0.26944 0.26944 1
4
 0.978162 0.270739 0.270739 1
4
 0.968216 0.266819 0.266819 1
4
 0.971702 0.268535 0.268535 1
4
 0.965773 0.262168 0.262168 1
4
 0.964147 0.263761 0.263761 1
4
 0.961498 0.260413 0.260413 1
4
 0.971865 0.272066 0.272066 1
4
 0.975364 0.273816 0.273816 1
4
 0.975966 0.277524 0.277524 1
4
 0.980855 0.280229 0.280229 1
4
 0.968813 0.271788 0.271788 1
4
 0.971646 0.274749 0.274749 1
4
 0.97992 0.278023 0.278023 1
4
 0.972411 0.270614 0.270614 1
4
 0.964851 0.265803 0.265803 1
4
 0.96588 0.268608 0.268608 1
4
 0.980471 0.276538 0.276538 1
4
 0.979316 0.273851 0.273851 1
4
 1 0.342772 0.342772 0.956361
4
 1 0.343229 0.343229 0.95138
4
 1 0.345503 0.345503 0.950953
4
 1 0.339061 0.339061 0.956038
4
 1 0.338288 0.338288 0.960289
4
 1 0.339495 0.339495 0.9618
4
 1 0.347389 0.347389 0.951113
4
 1 0.343189 0.343189 0.961693
4
 1 0.347165 0.347165 0.955128
4
 1 0.341348 0.341348 0.961963
4
 1 0.347853 0.347853 0.946159
4
 1 0.342727 0.342727 0.947221
4
 1 0.341366 0.341366 0.951219
4
 1 0.349932 0.349932 0.949726
4
 1 0.352721 0.352721 0.944355
4
 1 0.338565 0.338565 0.95186
4
 1 0.336759 0.336759 0.952341
4
 1 0.336343 0.336343 0.94967
4
 1 0.335422 0.335422 0.95636
4
 1 0.33368 0.33368 0.960558
4
 1 0.336452 0.336452 0.960127
4
 1 0.333221 0.333221 0.95416
4
 1 0.331106 0.331106 0.95894
4
 1 0.331901 0.331901 0.961043
4
 0.948781 0.279728 0.279728 1
4
 0.943574 0.275871 0.275871 1
4
 0.95022 0.282318 0.282318 1
4
 0.945801 0.279907 0.279907 1
4
 0.947822 0.27786 0.27786 1
4
 0.952625 0.279763 0.279763 1
4
 0.947557 0.276292 0.276292 1
4
 0.958042 0.285971 0.285971 1
4
 0.956753 0.282798 0.282798 1
4
 0.954498 0.284353 0.284353 1
4
 0.942357 0.272483 0.272483 1
4
 0.947132 0.272981 0.272981 1
4
 0.947132 0.27435 0.27435 1
4
 0.952358 0.276336 0.276336 1
4
 0.956323 0.28081 0.28081 1
4
 0.942093 0.269593 0.269593 1
4
 0.947292 0.271545 0.271545 1
4
 0.941248 0.26626 0.26626 1
4
 0.956485 0.279333 0.279333 1
4
 0.946442 0.269533 0.269533 1
4
 0.952894 0.273489 0.273489 1
4
 0.95756 0.278207 0.278207 1
4
 0.947721 0.25926 0.25926 1
4
 0.95188 0.263508 0.263508 1
4
 0.95751 0.265394 0.265394 1
4
 0.954128 0.262505 0.262505 1
4
 0.957079 0.267068 0.267068 1
4
 0.949959 0.259135 0.259135 1
4
 0.945859 0.261971 0.261971 1
4
 0.941462 0.256293 0.256293 1
4
 0.945594 0.260493 0.260493 1
4
 0.941567 0.259543 0.259543 1
4
 0.935612 0.252918 0.252918 1
4
 0.936505 0.25535 0.25535 1
4
 0.951826 0.266034 0.266034 1
4
 0.947772 0.265063 0.265063 1
4
 0.957078 0.271557 0.271557 1
4
 0.957025 0.269627 0.269627 1
4
 0.952681 0.269813 0.269813 1
4
 0.947401 0.260267 0.260267 1
4
 0.940881 0.252869 0.252869 1
4
 0.937243 0.251088 0.251088 1
4
 0.9374 0.252699 0.252699 1
4
 0.945489 0.255948 0.255948 1
4
 0.956756 0.268106 0.268106 1
4
 0.939612 0.260706 0.260706 1
4
 0.941936 0.263445 0.263445 1
4
 0.938399 0.258364 0.258364 1
4
 0.948358 0.267312 0.267312 1
4
 0.938774 0.237285 0.237285 1
4
 0.933675 0.232566 0.232566 1
4
 0.935197 0.234547 0.234547 1
4
 0.944379 0.239493 0.239493 1
4
 0.94263 0.239413 0.239413 1
4
 0.934199 0.235606 0.235606 1
4
 0.933779 0.237091 0.237091 1
4
 0.941625 0.240494 0.240494 1
4
 0.93967 0.240768 0.240768 1
4
 0.929125 0.230921 0.230921 1
4
 0.923663 0.226997 0.226997 1
4
 0.926728 0.231373 0.231373 1
4
 0.925168 0.228931 0.228931 1
4
 0.93022 0.234355 0.234355 1
4
 0.998073 0.317258 0.317258 1
4
 0.99824 0.320894 0.320894 1
4
 0.995553 0.316968 0.316968 1
4
 1 0.323677 0.323677 0.997385
4
 1 0.323298 0.323298 0.995036
4
 1 0.321059 0.321059 0.995985
4
 0.993432 0.313501 0.313501 1
4
 0.991426 0.309844 0.309844 1
4
 0.999419 0.315513 0.315513 1
4
 1 0.318226 0.318226 0.998112
4
 0.995108 0.311088 0.311088 1
4
 0.993598 0.317095 0.317095 1
4
 1 0.324444 0.324444 0.999348
4
 0.995664 0.322597 0.322597 1
4
 0.991202 0.31763 0.31763 1
4
 0.988924 0.309561 0.309561 1
4
 0.986871 0.310431 0.310431 1
4
 0.988534 0.313743 0.313743 1
4
 0.990592 0.307179 0.307179 1
4
 0.982393 0.302973 0.302973 1
4
 0.984878 0.30681 0.30681 1
4
 0.988037 0.304209 0.304209 1
4
 0.984603 0.302546 0.302546 1
4
 0.98063 0.299996 0.299996 1
4
 1 0.326299 0.326299 0.992636
4
 1 0.326236 0.326236 0.999966
4
 1 0.329034 0.329034 0.995596
4
 1 0.329672 0.329672 0.99169
4
 1 0.323659 0.323659 0.991243
4
 1 0.330069 0.330069 0.985638
4
 1 0.329285 0.329285 0.989354
4
 1 0.325391 0.325391 0.987798
4
 1 0.328669 0.328669 0.985085
4
 1 0.314879 0.314879 0.997047
4
 1 0.318863 0.318863 0.994643
4
 0.998578 0.312798 0.312798 1
4
 1 0.320569 0.320569 0.991187
4
 1 0.317408 0.317408 0.991854
4
 0.998635 0.311382 0.311382 1
4
 1 0.315954 0.315954 0.991798
4
 1 0.311051 0.311051 0.998952
4
 1 0.313294 0.313294 0.993861
4
 1 0.323138 0.323138 0.988741
4
 0.933305 0.245331 0.245331 1
4
 0.929696 0.243602 0.243602 1
4
 0.930845 0.242038 0.242038 1
4
 0.927142 0.238513 0.238513 1
4
 0.934878 0.247948 0.247948 1
4
 0.936034 0.246355 0.246355 1
4
 0.943103 0.252747 0.252747 1
4
 0.940671 0.249471 0.249471 1
4
 0.931419 0.247781 0.247781 1
4
 0.932465 0.251769 0.251769 1
4
 0.929853 0.239509 0.239509 1
4
 0.938192 0.246122 0.246122 1
4
 0.935562 0.242885 0.242885 1
4
 0.963446 0.254846 0.254846 1
4
 0.965069 0.258856 0.258856 1
4
 0.962526 0.255807 0.255807 1
4
 0.968436 0.258118 0.258118 1
4
 0.970886 0.261387 0.261387 1
4
 0.959882 0.25256 0.25256 1
4
 0.958536 0.248811 0.248811 1
4
 0.963663 0.251937 0.251937 1
4
 0.965775 0.254841 0.254841 1
4
 0.954883 0.247173 0.247173 1
4
 0.956063 0.249714 0.249714 1
4
 0.9615 0.256534 0.256534 1
4
 0.959773 0.257854 0.257854 1
4
 0.958373 0.255607 0.255607 1
4
 0.95515 0.250656 0.250656 1
4
 0.955847 0.252597 0.252597 1
4
 0.961394 0.249134 0.249134 1
4
 0.952634 0.244423 0.244423 1
4
 0.981128 0.289921 0.289921 1
4
 0.987429 0.29469 0.29469 1
4
 0.98234 0.293879 0.293879 1
4
 0.987096 0.29633 0.29633 1
4
 0.977554 0.288896 0.288896 1
4
 0.977937 0.290805 0.290805 1
4
 0.982839 0.286865 0.286865 1
4
 0.983832 0.289275 0.289275 1
4
 0.99015 0.294034 0.294034 1
4
 0.989373 0.290669 0.290669 1
4
 0.993938 0.294997 0.294997 1
4
 0.978983 0.285187 0.285187 1
4
 0.977555 0.281291 0.281291 1
4
 0.984496 0.286561 0.286561 1
4
 0.974048 0.281363 0.281363 1
4
 0.973229 0.278478 0.278478 1
4
 0.986266 0.292314 0.292314 1
4
 0.975033 0.283728 0.283728 1
4
 0.976402 0.286566 0.286566 1
4
 0.996397 0.298097 0.298097 1
4
 0.99774 0.300939 0.300939 1
4
 0.997236 0.302191 0.302191 1
4
 0.992264 0.298776 0.298776 1
4
 0.996674 0.308407 0.308407 1
4
 0.991706 0.30543 0.30543 1
4
 1 0.293752 0.293752 0.975279
4
 1 0.296131 0.296131 0.970635
4
 1 0.298299 0.298299 0.96922
4
 1 0.296511 0.296511 0.976485
4
 1 0.293534 0.293534 0.978735
4
 1 0.29349 0.29349 0.972053
4
 1 0.290916 0.290916 0.980165
4
 1 0.288547 0.288547 0.981266
4
 1 0.288299 0.288299 0.97824
4
 1 0.291348 0.291348 0.973254
4
 1 0.298033 0.298033 0.966013
4
 1 0.293708 0.293708 0.96862
4
 1 0.294233 0.294233 0.983584
4
 1 0.293648 0.293648 0.981377
4
 1 0.299447 0.299447 0.978297
4
 1 0.296546 0.296546 0.982977
4
 1 0.284278 0.284278 0.99917
4
 1 0.283036 0.283036 0.997712
4
 0.992716 0.276826 0.276826 1
4
 0.995674 0.280907 0.280907 1
4
 0.995283 0.277207 0.277207 1
4
 1 0.280855 0.280855 0.999001
4
 1 0.291279 0.291279 0.985851
4
 1 0.289487 0.289487 0.992126
4
 1 0.291167 0.291167 0.991792
4
 1 0.294154 0.294154 0.987458
4
 1 0.288911 0.288911 0.9899
4
 1 0.288333 0.288333 0.984743
4
 1 0.287649 0.287649 0.988455
4
 1 0.285878 0.285878 0.994747
4
 1 0.288799 0.288799 0.995866
4
 0.998641 0.284574 0.284574 1
4
 1 0.285307 0.285307 0.989566
4
 1 0.28574 0.28574 0.982809
4
 1 0.283109 0.283109 0.990844
4
 1 0.282437 0.282437 0.994579
4
 0.964465 0.292813 0.292813 1
4
 0.960897 0.291156 0.291156 1
4
 0.961814 0.293466 0.293466 1
4
 0.96946 0.297068 0.297068 1
4
 0.97044 0.299564 0.299564 1
4
 0.96609 0.297421 0.297421 1
4
 0.964899 0.290494 0.290494 1
4
 0.961762 0.287041 0.287041 1
4
 0.959496 0.288619 0.288619 1
4
 0.968046 0.294479 0.294479 1
4
 0.9636 0.287271 0.287271 1
4
 0.972296 0.295339 0.295339 1
4
 0.969896 0.294715 0.294715 1
4
 0.970551 0.292437 0.292437 1
4
 0.967341 0.289309 0.289309 1
4
 0.964196 0.28587 0.28587 1
4
 0.961547 0.282711 0.282711 1
4
 0.982012 0.282506 0.282506 1
4
 0.972792 0.276982 0.276982 1
4
 1 0.336707 0.336707 0.993587
4
 0.998799 0.330003 0.330003 1
4
 1 0.333234 0.333234 0.996827
4
 0.998406 0.332792 0.332792 1
4
 1 0.334858 0.334858 0.992973
4
 1 0.340575 0.340575 0.986139
4
 1 0.338599 0.338599 0.986249
4
 0.999416 0.328393 0.328393 1
4
 0.994657 0.326918 0.326918 1
4
 0.991869 0.322618 0.322618 1
4
 0.990589 0.319186 0.319186 1
4
 1 0.332046 0.332046 0.992303
4
 1 0.335106 0.335106 0.989466
4
 0.988587 0.325616 0.325616 1
4
 0.982224 0.319663 0.319663 1
4
 0.977657 0.317462 0.317462 1
4
 0.987866 0.323654 0.323654 1
4
 0.991478 0.325344 0.325344 1
4
 0.979911 0.315054 0.315054 1
4
 0.985097 0.319397 0.319397 1
4
 0.975519 0.3128 0.3128 1
4
 0.976944 0.31555 0.31555 1
4
 0.983494 0.3167 0.3167 1
4
 0.977274 0.310163 0.310163 1
4
 0.972075 0.307337 0.307337 1
4
 0.973932 0.310158 0.310158 1
4
 0.987424 0.31765 0.31765 1
4
 0.982446 0.314438 0.314438 1
4
 0.988985 0.287799 0.287799 1
4
 0.990652 0.287016 0.287016 1
4
 0.985991 0.283014 0.283014 1
4
 1 0.296499 0.296499 0.999117
4
 0.996678 0.293361 0.293361 1
4
 0.992712 0.289572 0.289572 1
4
 0.995615 0.294685 0.294685 1
4
 1 0.350702 0.350702 0.964345
4
 1 0.347607 0.347607 0.966404
4
 1 0.344273 0.344273 0.971682
4
 1 0.347144 0.347144 0.971464
4
 1 0.337987 0.337987 0.97392
4
 1 0.344395 0.344395 0.965644
4
 1 0.341092 0.341092 0.970918
4
 1 0.345701 0.345701 0.96029
4
 1 0.339908 0.339908 0.967163
4
 1 0.336554 0.336554 0.973373
4
 1 0.337345 0.337345 0.977976
4
 1 0.333481 0.333481 0.984698
4
 1 0.332857 0.332857 0.98045
4
 1 0.350159 0.350159 0.962343
4
 1 0.352695 0.352695 0.957653
4
 1 0.355544 0.355544 0.955719
4
 1 0.34374 0.34374 0.969665
4
 1 0.348385 0.348385 0.959051
4
 1 0.349583 0.349583 0.959698
4
 1 0.343282 0.343282 0.974742
4
 1 0.336544 0.336544 0.981662
4
 1 0.339646 0.339646 0.978856
4
 1 0.344477 0.344477 0.978527
4
 1 0.342478 0.342478 0.978636
4
 1 0.340828 0.340828 0.982656
4
 1 0.335756 0.335756 0.985584
4
 0.951501 0.284535 0.284535 1
4
 0.956859 0.289263 0.289263 1
4
 0.957019 0.292579 0.292579 1
4
 0.95182 0.289644 0.289644 1
4
 0.953157 0.292542 0.292542 1
4
 0.957126 0.296289 0.296289 1
4
 0.961057 0.297951 0.297951 1
4
 0.961274 0.296521 0.296521 1
4
 0.952409 0.286793 0.286793 1
4
 0.947236 0.283916 0.283916 1
4
 0.952569 0.288633 0.288633 1
4
 0.96203 0.295487 0.295487 1
4
 0.948725 0.288596 0.288596 1
4
 0.92128 0.227442 0.227442 1
4
 0.926311 0.232831 0.232831 1
4
 0.924492 0.232925 0.232925 1
4
 0.927976 0.235927 0.235927 1
4
 0.933673 0.239252 0.239252 1
4
 0.935668 0.23949 0.23949 1
4
 0.93184 0.239348 0.239348 1
4
 1 0.329688 0.329688 0.955339
4
 1 0.327595 0.327595 0.960125
4
 1 0.32394 0.32394 0.963148
4
 1 0.326613 0.326613 0.956788
4
 1 0.330696 0.330696 0.956251
4
 1 0.329705 0.329705 0.952928
4
 1 0.324931 0.324931 0.964068
4
 1 0.326091 0.326091 0.965586
4
 1 0.329387 0.329387 0.96315
4
 1 0.323958 0.323958 0.960717
4
 1 0.320164 0.320164 0.965585
4
 1 0.318965 0.318965 0.971186
4
 1 0.316695 0.316695 0.970803
4
 1 0.322453 0.322453 0.968626
4
 1 0.324093 0.324093 0.955177
4
 1 0.320298 0.320298 0.960016
4
 1 0.322806 0.322806 0.959208
4
 1 0.315569 0.315569 0.969278
4
 0.975531 0.261693 0.261693 1
4
 0.977999 0.265006 0.265006 1
4
 0.9813 0.264887 0.264887 1
4
 0.983948 0.269064 0.269064 1
4
 0.986493 0.269435 0.269435 1
4
 0.971705 0.255434 0.255434 1
4
 0.968654 0.255172 0.255172 1
4
 0.973835 0.258379 0.258379 1
4
 0.979594 0.261533 0.261533 1
4
 0.982017 0.262087 0.262087 1
4
 0.973233 0.261382 0.261382 1
4
 0.976518 0.261265 0.261265 1
4
 0.979427 0.268677 0.268677 1
4
 0.98163 0.268745 0.268745 1
4
 0.987491 0.268995 0.268995 1
4
 0.984723 0.265015 0.265015 1
4
 1 0.324607 0.324607 0.982708
4
 1 0.321663 0.321663 0.985969
4
 1 0.327642 0.327642 0.980779
4
 1 0.328139 0.328139 0.982598
4
 1 0.321407 0.321407 0.98337
4
 1 0.324733 0.324733 0.976821
4
 1 0.327381 0.327381 0.978194
4
 1 0.327254 0.327254 0.97556
4
 1 0.315811 0.315811 0.988684
4
 1 0.318718 0.318718 0.982927
4
 1 0.321788 0.321788 0.980062
4
 1 0.299367 0.299367 0.98215
4
 1 0.303841 0.303841 0.978133
4
 1 0.301172 0.301172 0.983365
4
 1 0.293456 0.293456 0.991181
4
 1 0.290788 0.290788 0.99721
4
 0.998977 0.286322 0.286322 1
4
 0.997743 0.287213 0.287213 1
4
 1 0.298255 0.298255 0.988069
4
 1 0.296081 0.296081 0.992239
4
 1 0.293772 0.293772 0.992852
4
 1 0.302712 0.302712 0.984028
4
 1 0.308753 0.308753 0.976653
4
 1 0.305292 0.305292 0.982207
4
 1 0.297867 0.297867 0.993466
4
 1 0.302611 0.302611 0.98746
4
 1 0.299532 0.299532 0.994527
4
 0.998359 0.292562 0.292562 1
4
 1 0.29339 0.29339 0.998275
4
 0.997743 0.290101 0.290101 1
4
 0.989708 0.284757 0.284757 1
4
 0.992713 0.285735 0.285735 1
4
 0.996064 0.287039 0.287039 1
4
 0.961821 0.26553 0.26553 1
4
 0.958425 0.262639 0.262639 1
4
 0.958157 0.259421 0.259421 1
4
 0.956544 0.259696 0.259696 1
4
 0.959447 0.265411 0.265411 1
4
 0.965663 0.271257 0.271257 1
4
 0.962414 0.270025 0.270025 1
4
 0.951881 0.259151 0.259151 1
4
 0.954183 0.25958 0.25958 1
4
 0.938083 0.261539 0.261539 1
4
 0.934561 0.256495 0.256495 1
4
 0.946814 0.268166 0.268166 1
4
 0.980354 0.303824 0.303824 1
4
 0.975467 0.299391 0.299391 1
4
 0.976125 0.297077 0.297077 1
4
 0.98449 0.310954 0.310954 1
4
 0.977935 0.303182 0.303182 1
4
 0.978923 0.30573 0.30573 1
4
 0.981178 0.311094 0.311094 1
4
 0.980573 0.308992 0.308992 1
4
 0.97563 0.305867 0.305867 1
4
 0.971038 0.305143 0.305143 1
4
 0.971257 0.303679 0.303679 1
4
 0.974043 0.301269 0.301269 1
4
 0.970657 0.301627 0.301627 1
4
 0.966095 0.277769 0.277769 1
4
 0.969302 0.277053 0.277053 1
4
 0.966041 0.275795 0.275795 1
4
 0.97148 0.282724 0.282724 1
4
 0.962035 0.273672 0.273672 1
4
 0.967452 0.280548 0.280548 1
4
 0.957669 0.273861 0.273861 1
4
 0.962953 0.27769 0.27769 1
4
 0.965228 0.272967 0.272967 1
4
 0.98389 0.278058 0.278058 1
4
 0.988042 0.281751 0.281751 1
4
 0.985385 0.272791 0.272791 1
4
 0.982952 0.274036 0.274036 1
4
 0.988321 0.276812 0.276812 1
4
 0.990544 0.276883 0.276883 1
4
 0.990155 0.273237 0.273237 1
4
 0.988099 0.278147 0.278147 1
4
 0.986878 0.279013 0.279013 1
4
 0.992268 0.281841 0.281841 1
4
 1 0.314025 0.314025 0.97841
4
 1 0.31179 0.31179 0.978025
4
 1 0.311553 0.311553 0.984196
4
 1 0.308521 0.308521 0.985744
4
 1 0.308295 0.308295 0.983588
4
 1 0.314387 0.314387 0.9749
4
 1 0.314147 0.314147 0.981051
4
 1 0.31779 0.31779 0.977258
4
 1 0.320103 0.320103 0.972714
4
 1 0.30865 0.30865 0.980059
4
 1 0.308641 0.308641 0.988405
4
 1 0.307772 0.307772 0.991963
4
 1 0.312412 0.312412 0.988794
4
 1 0.309209 0.309209 0.992465
4
 1 0.315288 0.315288 0.983037
4
 1 0.305414 0.305414 0.987794
4
 1 0.302306 0.302306 0.994863
4
 1 0.304777 0.304777 0.993524
4
 1 0.302085 0.302085 0.992687
4
 1 0.301455 0.301455 0.998445
4
 1 0.305339 0.305339 0.997605
4
 0.950176 0.24531 0.24531 1
4
 0.947246 0.242732 0.242732 1
4
 0.948417 0.245228 0.245228 1
4
 0.952044 0.24975 0.24975 1
4
 0.946448 0.245507 0.245507 1
4
 0.94353 0.242927 0.242927 1
4
 1 0.31091 0.31091 0.995815
4
 1 0.307723 0.307723 0.999512
4
 0.9955 0.304394 0.304394 1
4
 0.994103 0.305425 0.305425 1
4
 1 0.309942 0.309942 0.994418
4
 1 0.316035 0.316035 0.984971
4
 0.996899 0.303872 0.303872 1
4
 0.987151 0.297954 0.297954 1
4
 0.985766 0.298964 0.298964 1
4
 0.977992 0.292399 0.292399 1
4
 0.98234 0.297329 0.297329 1
4
 0.990538 0.301456 0.301456 1
4
 0.98571 0.300824 0.300824 1
4
 0.957339 0.301831 0.301831 1
4
 0.960301 0.302504 0.302504 1
4
 0.966088 0.306993 0.306993 1
4
 0.967499 0.309692 0.309692 1
4
 0.951071 0.29456 0.29456 1
4
 0.955031 0.298334 0.298334 1
4
 0.954013 0.295217 0.295217 1
4
 0.961921 0.300676 0.300676 1
4
 0.963759 0.303436 0.303436 1
4
 0.950013 0.256247 0.256247 1
4
 0.945277 0.252508 0.252508 1
4
 0.953916 0.256399 0.256399 1
4
 0.949161 0.252658 0.252658 1
4
 0.954131 0.253896 0.253896 1
4
 0.950761 0.252391 0.252391 1
4
 0.947563 0.252925 0.252925 1
4
 0.944429 0.248971 0.248971 1
4
 0.940196 0.245956 0.245956 1
4
 0.949375 0.250191 0.250191 1
4
 0.947139 0.247407 0.247407 1
4
 0.941782 0.245696 0.245696 1
4
 0.943794 0.24594 0.24594 1
4
 0.939564 0.242962 0.242962 1
4
 1 0.360923 0.360923 0.942026
4
 1 0.353983 0.353983 0.948661
4
 1 0.3552 0.3552 0.949301
4
 1 0.358069 0.358069 0.947384
4
 1 0.356804 0.356804 0.943296
4
 1 0.360679 0.360679 0.94579
4
 1 0.350909 0.350909 0.954378
4
 1 0.352493 0.352493 0.948341
4
 1 0.354959 0.354959 0.953093
4
 0.973226 0.287441 0.287441 1
4
 0.968321 0.282643 0.282643 1
4
 0.977937 0.294219 0.294219 1
4
 0.973991 0.291739 0.291739 1
4
 0.97077 0.288618 0.288618 1
4
 0.968103 0.28543 0.28543 1
4
 0.968701 0.284511 0.284511 1
4
 1 0.283373 0.283373 0.980108
4
 1 0.284378 0.284378 0.975824
4
 1 0.282399 0.282399 0.976537
4
 1 0.286506 0.286506 0.975496
4
 1 0.288513 0.288513 0.974785
4
 1 0.285521 0.285521 0.971942
4
 1 0.289536 0.289536 0.970525
4
 0.978321 0.296658 0.296658 1
4
 0.971151 0.291011 0.291011 1
4
 0.989934 0.269565 0.269565 1
4
 0.998419 0.277492 0.277492 1
4
 0.994781 0.273758 0.273758 1
4
 0.991993 0.269707 0.269707 1
4
 0.990268 0.267181 0.267181 1
4
 1 0.277501 0.277501 0.999505
4
 0.995117 0.271338 0.271338 1
4
 0.957937 0.276796 0.276796 1
4
 0.958529 0.275906 0.275906 1
4
 0.96528 0.284717 0.284717 1
4
 0.963223 0.280666 0.280666 1
4
 1 0.322016 0.322016 0.976381
4
 1 0.321265 0.321265 0.974683
4
 1 0.324359 0.324359 0.971841
4
 1 0.327638 0.327638 0.969389
4
 1 0.327641 0.327641 0.972279
4
 1 0.326874 0.326874 0.967703
4
 1 0.332921 0.332921 0.964828
4
 1 0.330182 0.330182 0.968139
4
 1 0.336883 0.336883 0.965913
4
 1 0.333053 0.333053 0.970316
4
 1 0.332924 0.332924 0.967704
4
 1 0.334241 0.334241 0.971844
4
 1 0.334749 0.334749 0.973646
4
 1 0.330943 0.330943 0.978084
4
 1 0.330313 0.330313 0.973645
4
 0.967717 0.305138 0.305138 1
4
 0.966089 0.300912 0.300912 1
4
 0.970983 0.310646 0.310646 1
1
 1

